data;

param n:=23;
param p:=4;
param r:=[1] 0 [2] 3 [3] 4 [4] 10 [5] 5 [6] 5 [7] 3 [8] 14 [9] 18 [10] 2 [11] 3 [12] 38 [13] 19 [14] 37 [15] 36 [16] 56 [17] 28 [18] 41 [19] 52 [20] 75 [21] 79 [22] 12 [23] 47 ;
param w:=[1] 30 [2] 28 [3] 15 [4] 26 [5] 20 [6] 55 [7] 17 [8] 16 [9] 37 [10] 95 [11] 56 [12] 20 [13] 81 [14] 4 [15] 18 [16] 90 [17] 77 [18] 58 [19] 67 [20] 13 [21] 76 [22] 64 [23] 25 ;

end;
